141	32	4	73	
10	10	10	10

0	0	0	0	0	0	2	1	2
1	1	0	1	1	4	3	9	4	3
2	4	1	0	3	5	2	4	3
3	0	4	2	2	3	5	12	10	8	6	5
4	0	5	4	6	1	4	12	10	7	5
5	1	0	5	2	9	4	17	14	13	11
6	5	0	2	4	7	1	7
7	3	7	0	3	2	4	17	16	14	13
8	4	0	5	5	8	4	17	16	14	13
9	0	5	2	4	4	2	12	11
10	0	3	4	4	7	3	20	16	14
11	0	2	2	4	6	4	30	20	16	15
12	5	0	7	5	2	2	16	13
13	0	5	5	5	2	5	30	21	20	19	18
14	3	2	3	0	7	3	30	18	15
15	5	0	4	6	4	4	29	22	21	19
16	7	4	3	0	1	2	21	18
17	5	5	3	0	5	6	30	28	27	26	25	23
18	3	0	6	3	9	5	29	28	27	25	22
19	4	0	4	5	6	5	28	27	26	25	23
20	4	1	0	4	6	5	29	27	26	25	22
21	7	0	2	4	9	3	26	25	24
22	0	4	7	3	1	1	24
23	3	0	2	3	1	1	24
24	3	0	7	3	10	1	31
25	5	3	4	0	3	1	31
26	0	5	3	4	3	1	31
27	4	5	0	4	1	1	31
28	4	0	4	5	10	1	31
29	0	5	10	8	1	1	31
30	4	6	3	0	4	1	31
31	0	0	0	0	0	0
